20
 N1C1W1_A 
 100 50 0 
99
99
96
96
92
92
91
88
87
86
85
76
74
72
69
67
67
62
61
56
52
51
49
46
44
42
40
40
33
33
30
30
29
28
28
27
25
24
23
22
21
20
17
14
13
11
10
7
7
3
 N1C1W1_B 
 100 50 0 
100
99
97
97
97
93
93
92
92
88
83
83
79
76
76
75
72
71
70
69
67
66
63
62
62
61
61
51
50
44
44
43
43
40
39
37
37
30
23
20
19
18
17
15
14
13
13
12
8
8
 N1C1W1_C 
 100 50 0 
92
89
87
84
82
82
81
75
73
71
67
67
63
59
57
56
52
49
48
47
46
41
39
38
36
35
34
34
30
29
26
21
20
19
18
15
15
13
11
10
10
10
9
8
8
7
6
6
6
3
 N1C1W1_D 
 100 50 0 
100
99
98
97
95
94
92
92
91
82
80
77
76
75
73
73
73
71
68
65
65
63
63
63
60
59
53
45
44
40
31
25
24
24
24
23
22
21
21
15
14
14
10
10
7
7
6
3
2
2
 N1C1W1_E 
 100 50 0 
91
88
88
87
87
86
86
85
85
84
83
80
79
78
77
70
70
68
67
66
59
52
49
48
47
47
44
42
38
37
37
34
34
33
31
29
27
24
21
17
16
16
15
14
8
6
5
4
2
2
 N1C1W1_F 
 100 50 0 
99
98
98
93
92
89
89
84
84
83
78
77
75
73
72
71
70
69
69
68
60
60
57
56
54
50
49
49
45
37
36
35
30
30
27
26
26
25
24
21
20
19
15
14
13
11
11
8
2
2
 N1C1W1_G 
 100 50 0 
100
99
98
98
98
91
90
87
84
84
78
77
72
71
70
69
69
64
63
58
58
46
45
45
43
43
42
41
37
37
37
35
34
31
30
29
24
23
22
21
20
17
12
11
10
9
7
6
5
4
 N1C1W1_H 
 100 50 0 
97
93
93
92
92
91
90
88
86
85
85
85
82
81
80
79
75
73
71
70
70
67
66
64
62
62
61
54
48
48
47
46
44
41
40
39
34
29
24
24
21
18
16
16
14
13
11
10
5
1
 N1C1W1_I 
 100 50 0 
95
92
87
87
85
84
83
79
77
77
75
73
69
68
65
63
63
62
61
58
57
52
50
44
43
40
40
38
38
38
35
33
33
32
31
29
27
24
24
22
19
19
18
16
14
11
6
4
3
2
 N1C1W1_J 
 100 50 0 
99
99
95
94
94
93
91
90
86
81
81
80
79
77
74
69
69
63
55
54
54
53
52
50
44
40
39
38
37
36
36
36
36
34
31
31
26
25
23
22
18
17
15
14
13
12
10
7
2
1
 N1C1W1_K 
 100 50 0 
96
91
91
89
87
85
84
83
82
79
78
77
77
75
75
70
68
66
64
62
62
56
53
51
44
41
40
38
38
36
34
31
30
29
28
27
26
23
17
16
15
14
14
12
11
10
8
8
4
2
 N1C1W1_L 
 100 50 0 
99
99
98
96
95
93
92
92
89
87
85
85
82
80
72
71
68
68
64
64
63
61
59
59
57
57
57
55
55
52
52
51
49
48
47
47
40
39
38
37
29
28
28
22
22
19
17
16
9
4
 N1C1W1_M 
 100 50 0 
100
100
99
97
94
93
91
90
89
88
87
87
86
86
79
77
72
71
70
69
68
68
65
64
61
60
59
51
50
50
43
42
39
37
29
27
25
24
21
19
17
16
13
13
8
6
6
3
2
1
 N1C1W1_N 
 100 50 0 
99
98
95
95
95
94
94
91
88
87
86
85
76
74
73
71
68
60
55
54
51
45
42
40
39
39
36
34
33
32
32
31
31
30
29
26
26
23
21
21
21
19
18
18
16
15
5
5
4
1
 N1C1W1_O 
 100 50 0 
100
99
98
97
97
94
92
91
91
90
88
87
85
81
81
80
79
72
70
67
67
66
64
63
61
59
58
56
55
51
50
50
50
49
46
41
39
39
38
30
30
24
22
21
20
19
14
8
7
5
 N1C1W1_P 
 100 50 0 
96
94
91
90
82
81
80
77
76
75
74
72
70
68
65
63
63
63
60
60
59
58
57
55
51
47
46
36
36
34
32
32
30
30
28
28
27
26
24
24
19
19
17
17
11
9
9
7
4
4
 N1C1W1_Q 
 100 50 0 
97
92
90
85
83
83
82
81
77
76
74
73
71
67
67
67
67
63
63
62
59
58
58
56
56
55
53
50
47
42
41
41
41
39
37
35
32
31
30
26
25
22
20
17
16
15
13
13
10
5
 N1C1W1_R 
 100 50 0 
95
94
93
92
87
81
81
79
78
76
75
72
72
71
70
65
62
61
60
55
54
54
51
49
46
45
38
38
37
36
36
36
32
31
28
27
26
25
24
24
21
20
20
17
14
10
9
7
7
3
 N1C1W1_S 
 100 50 0 
100
99
99
97
96
95
87
87
87
86
84
82
80
80
80
76
75
74
71
68
67
63
62
60
52
52
52
48
44
44
43
43
37
34
33
31
29
28
25
21
20
17
16
13
11
9
6
5
4
3
 N1C1W1_T 
 100 50 0 
100
97
92
91
89
88
83
82
82
82
78
77
77
77
73
72
68
67
66
65
64
62
60
60
57
53
50
48
46
42
40
40
38
37
37
31
30
29
28
21
20
20
20
20
18
18
15
15
11
1
